RT is False
Default write of storage_offers_DA.csv just to have a file (but constraint should be inactive)
Reading model...
...model read.
creating competitive generators file...
...competitive generators recorded.
Loading data...
.. day-ahead data read.
Compiling instance...
...instance created.
Creating Offer Mitigation (model will solve as dispatch if TRUE)...
NOTE: storage offers will not be mitigated
...storage offer mitigation file created
Converting model to MPEC...
...converted
NOTE: initial MIP solve with only storage competitive to get feasible solution
Solving...

Welcome to IBM(R) ILOG(R) CPLEX(R) Interactive Optimizer 12.9.0.0
  with Simplex, Mixed Integer & Barrier Optimizers
5725-A06 5725-A29 5724-Y48 5724-Y49 5724-Y54 5724-Y55 5655-Y21
Copyright IBM Corp. 1988, 2019.  All Rights Reserved.

Type 'help' for a list of available commands.
Type 'help' followed by a command name for more
information on commands.

CPLEX> Logfile 'cplex.log' closed.
Logfile 'C:\Users\Luke\Desktop\competitiveMPEC_12.6\logs\tmpwxhoqv1s.cplex.log' open.
CPLEX> New value for parallel optimization mode: -1
CPLEX> New value for mixed integer optimality gap tolerance: 0.01
CPLEX> New value for integrality tolerance: 1e-09
CPLEX> New value for feasibility tolerance: 0.01
CPLEX> New value for deterministic time limit in ticks: 175000
CPLEX> Problem 'C:\Users\Luke\Desktop\competitiveMPEC_12.6\logs\tmp2gs4v6vu.pyomo.lp' read.
Read time = 0.20 sec. (13.79 ticks)
CPLEX> Problem name         : C:\Users\Luke\Desktop\competitiveMPEC_12.6\logs\tmp2gs4v6vu.pyomo.lp
Objective sense      : Maximize
Variables            :   53321  [Nneg: 1,  Box: 21806,  Free: 4416,
                                 Binary: 27098]
Objective nonzeros   :    8942
Linear constraints   :  122188  [Less: 41007,  Greater: 58612,  Equal: 22569]
  Nonzeros           :  288515
  RHS nonzeros       :   66967

Variables            : Min LB: -5000.000        Max UB: 1000000.       
Objective nonzeros   : Min   : 1.200000         Max   : 839.2000       
Linear constraints   :
  Nonzeros           : Min   : 0.8500000        Max   : 1000000.       
  RHS nonzeros       : Min   : 1.000000         Max   : 1000000.       
CPLEX> CPXPARAM_Parallel                                -1
CPXPARAM_Simplex_Tolerances_Feasibility          0.01
CPXPARAM_DetTimeLimit                            175000
CPXPARAM_MIP_Tolerances_MIPGap                   0.01
CPXPARAM_MIP_Tolerances_Integrality              1.0000000000000001e-09
Tried aggregator 3 times.
MIP Presolve eliminated 88273 rows and 19101 columns.
MIP Presolve added 3341 rows and 0 columns.
MIP Presolve modified 24452 coefficients.
Aggregator did 12860 substitutions.
Reduced MIP has 24396 rows, 20778 columns, and 68251 nonzeros.
Reduced MIP has 8212 binaries, 0 generals, 0 SOSs, and 0 indicators.
Presolve time = 0.25 sec. (175.63 ticks)
Probing fixed 448 vars, tightened 2844 bounds.
Probing time = 1.45 sec. (906.53 ticks)
Tried aggregator 2 times.
MIP Presolve eliminated 1002 rows and 900 columns.
MIP Presolve modified 2158 coefficients.
Aggregator did 43 substitutions.
Reduced MIP has 23351 rows, 19835 columns, and 65218 nonzeros.
Reduced MIP has 7762 binaries, 0 generals, 0 SOSs, and 0 indicators.
Presolve time = 0.09 sec. (67.61 ticks)
Probing time = 0.03 sec. (15.38 ticks)
Clique table members: 6419.
MIP emphasis: balance optimality and feasibility.
MIP search method: dynamic search.
Parallel mode: opportunistic, using up to 24 threads.
Root relaxation solution time = 0.33 sec. (478.41 ticks)

        Nodes                                         Cuts/
   Node  Left     Objective  IInf  Best Integer    Best Bound    ItCnt     Gap

      0     0      -34.9560   718                    -34.9560     5827         
      0     0      -34.9560     8                    Fract: 3     5830         
      0     0      -34.9560     6                 Flowcuts: 4     5833         
      0     2      -34.9560     6                 Impl Bds: 1     5833         
Elapsed time = 7.13 sec. (4547.57 ticks, tree = 0.02 MB, solutions = 0)
*   152    34      integral     0     -244.5926     -204.7319     6294   16.30%
*   201    44      integral     0     -204.7319     -204.7319     6376    0.00%

Implied bound cuts applied:  6
Flow cuts applied:  3
Gomory fractional cuts applied:  4

Root node processing (before b&c):
  Real time             =    6.72 sec. (4507.92 ticks)
Parallel b&c, 24 threads:
  Real time             =    0.84 sec. (233.70 ticks)
  Sync time (average)   =    0.15 sec.
  Wait time (average)   =    0.00 sec.
                          ------------
Total (root+branch&cut) =    7.56 sec. (4741.62 ticks)

Solution pool: 3 solutions saved.

MIP - Integer optimal solution:  Objective = -2.0473187918e+02
Solution time =    7.56 sec.  Iterations = 9237  Nodes = 256
Deterministic time = 4741.77 ticks  (626.97 ticks/sec)

CPLEX> Incumbent solution written to file 'C:\Users\Luke\Desktop\competitiveMPEC_12.6\logs\tmpehsx9no6.cplex.sol'.
CPLEX> NOTE: no warmstart specified for MIP iteration, default behavior is true
NOTE: resolving with all competitive generators using storage-only solution to warmstart
Solving...

Welcome to IBM(R) ILOG(R) CPLEX(R) Interactive Optimizer 12.9.0.0
  with Simplex, Mixed Integer & Barrier Optimizers
5725-A06 5725-A29 5724-Y48 5724-Y49 5724-Y54 5724-Y55 5655-Y21
Copyright IBM Corp. 1988, 2019.  All Rights Reserved.

Type 'help' for a list of available commands.
Type 'help' followed by a command name for more
information on commands.

CPLEX> Logfile 'cplex.log' closed.
Logfile 'C:\Users\Luke\Desktop\competitiveMPEC_12.6\logs\tmp0whidkwl.cplex.log' open.
CPLEX> New value for parallel optimization mode: -1
CPLEX> New value for mixed integer optimality gap tolerance: 0.01
CPLEX> New value for integrality tolerance: 1e-09
CPLEX> New value for feasibility tolerance: 0.01
CPLEX> New value for deterministic time limit in ticks: 175000
CPLEX> Problem 'C:\Users\Luke\Desktop\competitiveMPEC_12.6\logs\tmpmci0cx6f.pyomo.lp' read.
Read time = 0.19 sec. (13.81 ticks)
CPLEX> MIP start file 'C:\Users\Luke\Desktop\competitiveMPEC_12.6\logs\tmp9njyeaam.cplex.mst' read.
CPLEX> Problem name         : C:\Users\Luke\Desktop\competitiveMPEC_12.6\logs\tmpmci0cx6f.pyomo.lp
Objective sense      : Maximize
Variables            :   54041  [Nneg: 1,  Box: 22526,  Free: 4416,
                                 Binary: 27098]
Objective nonzeros   :    9639
Linear constraints   :  122188  [Less: 41007,  Greater: 58612,  Equal: 22569]
  Nonzeros           :  288515
  RHS nonzeros       :   66967

Variables            : Min LB: -5000.000        Max UB: 1000000.       
Objective nonzeros   : Min   : 1.200000         Max   : 799.1000       
Linear constraints   :
  Nonzeros           : Min   : 0.8500000        Max   : 1000000.       
  RHS nonzeros       : Min   : 1.000000         Max   : 1000000.       
CPLEX> CPXPARAM_Parallel                                -1
CPXPARAM_Simplex_Tolerances_Feasibility          0.01
CPXPARAM_DetTimeLimit                            175000
CPXPARAM_MIP_Tolerances_MIPGap                   0.01
CPXPARAM_MIP_Tolerances_Integrality              1.0000000000000001e-09
Warning:  No solution found from 1 MIP starts.
Retaining values of one MIP start for possible repair.
Tried aggregator 3 times.
MIP Presolve eliminated 88273 rows and 19821 columns.
MIP Presolve added 3341 rows and 0 columns.
MIP Presolve modified 24452 coefficients.
Aggregator did 12860 substitutions.
Reduced MIP has 24396 rows, 20778 columns, and 68251 nonzeros.
Reduced MIP has 8212 binaries, 0 generals, 0 SOSs, and 0 indicators.
Presolve time = 0.25 sec. (176.00 ticks)
Probing fixed 448 vars, tightened 2844 bounds.
Probing time = 1.45 sec. (906.53 ticks)
Tried aggregator 2 times.
MIP Presolve eliminated 1002 rows and 900 columns.
MIP Presolve modified 2158 coefficients.
Aggregator did 43 substitutions.
Reduced MIP has 23351 rows, 19835 columns, and 65218 nonzeros.
Reduced MIP has 7762 binaries, 0 generals, 0 SOSs, and 0 indicators.
Presolve time = 0.09 sec. (67.62 ticks)
Probing time = 0.03 sec. (15.38 ticks)
Clique table members: 6419.
MIP emphasis: balance optimality and feasibility.
MIP search method: dynamic search.
Parallel mode: opportunistic, using up to 24 threads.
Root relaxation solution time = 0.27 sec. (241.87 ticks)

        Nodes                                         Cuts/
   Node  Left     Objective  IInf  Best Integer    Best Bound    ItCnt     Gap

      0     0    79929.4192  1730                  79929.4192     5928         
      0     0    78192.1835   653                   Cuts: 572     6188         
      0     0    77986.5053   531                   Cuts: 381     6325         
      0     0    77937.7240   484                   Cuts: 220     6425         
      0     0    77935.9645   437                   Cuts: 118     6498         
      0     0    77935.9645   432                    Cuts: 44     6515         
      0     0    77935.9645   423                    Cuts: 33     6525         
      0     0    77935.9645   412                    Cuts: 25     6533         
      0     0    77935.9645   409                    Cuts: 18     6537         
      0     0    77935.9645   407                    Cuts: 16     6539         
Repair heuristic found nothing.
      0     6    infeasible                        77679.4526     6624         
Elapsed time = 10.11 sec. (6894.36 ticks, tree = 0.02 MB, solutions = 0)
    179   157    infeasible                        77045.1737     8278         
    668   201    46782.9443   338                  77045.1737     8625         
   1057   443   -12880.0262   334                  77045.1737    12278         
   1620   796     3937.3607   304                  77045.1737    15822         
   2113  1018    53529.8765   312                  77045.1737    18103         
   2685  1482    53890.2769   295                  77045.1737    21082         
   3368  1970    53890.2769   267                  77045.1737    22925         
   4126  2568    45685.5008   246                  77045.1737    24231         
   4906  3763    45760.0030   226                  77045.1737    25314         
*  7838+ 5832                        23554.6458    77045.1737           227.09%
Elapsed time = 18.27 sec. (9826.70 ticks, tree = 47.27 MB, solutions = 1)
  10099  5293    51952.2681   300    37370.4877    77006.5283    36167  106.06%
  10120  5997        cutoff          37370.4877    46374.9850    48340   24.10%
  11820   779    43020.0186    68    37370.4877    46374.9850    53659   24.10%
  12481  1663    40564.6511    50    37370.4877    46374.9850    60520   24.10%
  14768  1386    43444.7304    91    42624.7289    46374.9850    68030    8.80%
* 15586  1241      integral     0    42808.4162    46374.9850    66694    8.33%
  17336  2512    43840.9990    48    42808.4162    46374.9850    76086    8.33%
  19670  2964        cutoff          42808.4162    46374.9850    78339    8.33%
  20974  3903    44381.2426    55    42808.4162    46374.9850    82956    8.33%
  21822  4320    43476.3005    54    42808.4162    46374.9850    85256    8.33%
  22590  3608    43870.7781    49    42808.4162    44816.9367    81611    4.69%
Elapsed time = 49.91 sec. (23259.32 ticks, tree = 28.70 MB, solutions = 13)
  23383  5992    44043.5487    48    42808.4162    44816.9367    99685    4.69%
  24787  6761    44195.5674    76    42808.4162    44816.9367   107913    4.69%
  27196  7333    43182.0865    64    42808.4162    44816.9367   115109    4.69%
  29916  7825        cutoff          42808.4162    44782.9002   120482    4.61%
  32445 10025    43824.8378    82    42808.4162    44782.9002   144289    4.61%
  35013 10220        cutoff          42808.4162    44707.5172   146557    4.44%
  37643 11527    43720.7279    70    42808.4162    44609.4296   163102    4.21%
  40179 11177    43973.5323    60    42808.4162    44248.2440   157342    3.36%
  42603 13491    43095.4337    49    42808.4162    44098.3921   207432    3.01%
  44905 13539    43095.4337    47    42808.4162    44091.4381   208706    3.00%
Elapsed time = 76.45 sec. (32802.91 ticks, tree = 135.45 MB, solutions = 13)
  46868 13451    43030.6472    74    42808.4162    44043.5487   206543    2.89%
  47860 12515    42885.6519    92    42808.4162    44041.8429   183095    2.88%
  48663 13955        cutoff          42808.4162    44019.4367   223597    2.83%
  49414 13902    43836.9509    62    42808.4162    44009.5122   221600    2.81%
  49922 15130        cutoff          42808.4162    43960.9178   273400    2.69%
  51394 15076    43833.9941    64    42808.4162    43952.8822   270254    2.67%
  53281 15018        cutoff          42808.4162    43779.1238   267762    2.27%
  55505 14942    43112.7231    81    42808.4162    43696.1336   310726    2.07%
  57742 14409        cutoff          42808.4162    43619.0834   327512    1.89%
  59839 14791    43215.9513    74    42808.4162    43494.4736   316253    1.60%
Elapsed time = 102.39 sec. (42347.06 ticks, tree = 154.19 MB, solutions = 13)
  62070 13742        cutoff          42808.4162    43402.8968   345311    1.39%
  64242 12050    43334.9286    67    42808.4162    43301.7017   384414    1.15%
  66052 12627    43275.5340    82    42808.4162    43287.4469   374612    1.12%
  66816 11111        cutoff          42808.4162    43287.4469   400774    1.12%
  66998 12636        cutoff          42808.4162    43287.4469   373719    1.12%
  67088 10906        cutoff          42808.4162    43287.4469   402714    1.12%

GUB cover cuts applied:  1
Clique cuts applied:  15
Cover cuts applied:  25
Implied bound cuts applied:  23
Flow cuts applied:  288
Mixed integer rounding cuts applied:  25
Gomory fractional cuts applied:  103

Root node processing (before b&c):
  Real time             =    9.63 sec. (6884.79 ticks)
Parallel b&c, 24 threads:
  Real time             =   97.06 sec. (41518.87 ticks)
  Sync time (average)   =    0.84 sec.
  Wait time (average)   =    0.07 sec.
                          ------------
Total (root+branch&cut) =  106.69 sec. (48403.66 ticks)

Solution pool: 13 solutions saved.

MIP - Integer optimal, tolerance (0.01/1e-06):  Objective =  4.2808416187e+04
Current MIP best bound =  4.3236346342e+04 (gap = 427.93, 1.00%)
Solution time =  106.69 sec.  Iterations = 416906  Nodes = 67122 (10112)
Deterministic time = 48403.82 ticks  (453.70 ticks/sec)

CPLEX> Incumbent solution written to file 'C:\Users\Luke\Desktop\competitiveMPEC_12.6\logs\tmptgiygc6b.cplex.sol'.
CPLEX> Exporting results... 
